NAME : rnd29_20.tsp
TYPE : TSP
DIMENSION : 20
EDGE_WEIGHT_TYPE : EUC_2D
NODE_COORD_SECTION
1 807 715
2 335 312
3 638 494
4 577 880
5 759 443
6 532 712
7 166 416
8 954 430
9 776 337
10 201 577
11 876 141
12 645 833
13 899 423
14 577 762
15 666 280
16 239 667
17 557 47
18 855 888
19 322 22
20 738 477
